<number of tasks>
250

<cycle time>
1000

<order strength>
0.597


<task times>
1 546
2 607
3 485
4 510
5 220
6 568
7 517
8 463
9 588
10 399
11 584
12 719
13 290
14 337
15 639
16 478
17 392
18 742
19 326
20 494
21 352
22 362
23 213
24 640
25 343
26 765
27 362
28 548
29 463
30 397
31 491
32 663
33 651
34 397
35 384
36 511
37 392
38 360
39 432
40 525
41 501
42 762
43 490
44 694
45 400
46 423
47 447
48 450
49 553
50 240
51 744
52 570
53 528
54 615
55 592
56 408
57 490
58 401
59 509
60 446
61 589
62 597
63 407
64 340
65 471
66 851
67 630
68 578
69 482
70 463
71 547
72 433
73 344
74 648
75 495
76 585
77 500
78 285
79 341
80 473
81 728
82 388
83 574
84 617
85 520
86 318
87 498
88 220
89 323
90 359
91 538
92 706
93 332
94 475
95 587
96 856
97 283
98 700
99 419
100 651
101 373
102 610
103 507
104 618
105 671
106 548
107 359
108 518
109 530
110 274
111 481
112 853
113 419
114 656
115 600
116 518
117 441
118 581
119 485
120 489
121 599
122 555
123 401
124 508
125 516
126 611
127 575
128 389
129 382
130 546
131 506
132 304
133 493
134 524
135 570
136 700
137 392
138 255
139 269
140 586
141 502
142 467
143 442
144 537
145 223
146 437
147 300
148 395
149 542
150 520
151 388
152 465
153 446
154 559
155 589
156 533
157 351
158 295
159 519
160 701
161 408
162 639
163 591
164 176
165 239
166 686
167 566
168 502
169 476
170 377
171 284
172 330
173 453
174 579
175 529
176 639
177 529
178 440
179 545
180 245
181 282
182 477
183 527
184 445
185 459
186 474
187 528
188 489
189 468
190 414
191 452
192 509
193 604
194 359
195 318
196 507
197 395
198 596
199 674
200 421
201 560
202 601
203 474
204 666
205 566
206 579
207 628
208 561
209 285
210 556
211 630
212 327
213 646
214 477
215 428
216 445
217 723
218 526
219 216
220 469
221 634
222 431
223 683
224 347
225 592
226 466
227 670
228 485
229 438
230 522
231 642
232 558
233 397
234 559
235 391
236 611
237 436
238 436
239 515
240 490
241 516
242 570
243 445
244 555
245 389
246 626
247 711
248 460
249 550
250 572

<precedence relations>
1,4
2,5
2,6
2,7
2,10
3,8
3,9
3,16
4,13
5,12
6,11
6,13
6,14
6,15
7,13
7,14
7,15
7,16
8,54
9,67
9,68
9,69
10,13
10,14
10,15
10,16
11,18
12,17
13,19
13,40
14,20
14,21
14,24
14,25
15,23
15,25
16,20
16,21
16,22
17,27
18,29
19,30
20,26
20,31
20,32
20,38
20,39
21,28
22,32
22,38
23,32
23,38
23,39
24,32
25,32
25,38
26,33
27,36
28,35
29,39
30,38
31,37
32,34
32,40
32,49
33,47
34,41
35,42
36,44
37,46
38,43
38,45
38,47
38,48
38,49
39,47
39,48
39,49
40,47
40,48
41,53
42,50
43,51
44,54
45,52
46,54
47,55
47,56
48,111
48,113
49,54
49,85
50,59
51,57
52,59
53,58
54,66
55,59
55,62
55,63
56,59
56,60
56,61
56,62
56,63
57,66
58,64
59,65
59,69
60,66
60,68
60,69
61,93
61,106
62,74
63,65
63,66
63,67
63,68
63,69
64,73
65,70
65,71
65,72
65,74
65,75
65,76
65,77
66,76
67,74
67,75
67,76
67,77
68,74
68,75
68,76
68,77
69,99
69,121
69,133
69,186
69,189
70,78
71,79
72,81
73,83
74,80
74,83
74,84
74,85
74,86
74,87
75,82
75,83
76,83
76,88
77,83
77,85
77,86
78,89
79,92
80,90
81,92
82,91
83,95
84,92
84,96
85,94
85,95
85,96
86,92
86,93
87,92
88,93
88,112
89,97
90,99
91,98
92,100
92,101
92,102
93,103
94,99
94,103
94,108
94,112
95,103
95,112
96,99
97,105
98,106
99,143
99,185
100,104
100,109
101,106
101,108
102,119
102,150
102,247
103,107
103,109
104,110
105,111
106,111
106,112
106,114
107,113
107,114
107,115
108,133
108,135
108,136
109,111
109,115
109,138
109,145
110,116
111,200
112,118
112,164
112,236
112,237
113,120
114,117
114,119
114,121
114,134
115,118
115,127
115,189
116,122
117,123
117,125
117,127
117,189
117,226
118,124
118,243
119,248
120,128
120,199
121,125
121,126
121,210
122,129
123,130
124,131
125,132
125,135
125,138
126,136
126,152
127,143
128,133
128,134
128,137
128,176
128,177
129,139
130,140
131,141
132,142
133,197
133,226
133,235
134,145
134,189
134,226
135,146
136,155
137,184
138,143
138,144
139,147
140,149
141,148
142,150
143,152
143,243
144,155
145,153
145,200
145,209
145,238
146,151
146,154
146,239
147,157
148,156
149,161
150,158
150,159
150,160
150,216
150,227
151,162
151,237
151,250
152,164
152,166
152,167
153,165
153,196
153,237
153,244
154,163
156,168
157,176
158,169
159,170
160,172
161,174
162,175
163,171
163,187
164,173
165,210
166,177
166,187
167,200
167,242
168,184
169,179
170,178
171,180
172,187
173,181
174,183
175,182
176,185
176,186
176,188
176,189
176,196
177,184
177,208
177,216
178,196
179,192
180,193
181,194
182,199
183,195
184,239
185,190
185,198
185,249
186,191
186,200
187,249
188,197
188,235
189,197
189,208
190,203
191,205
192,201
193,207
194,206
195,208
196,218
196,236
197,202
197,209
197,210
197,246
198,204
198,208
201,211
202,213
203,216
204,214
205,216
206,215
207,216
208,212
209,217
209,219
210,218
210,220
210,248
211,221
212,222
213,225
214,226
215,223
216,224
217,245
220,227
220,247
220,249
221,231
222,228
223,229
224,230
225,231
225,232
228,234
229,233
230,235
231,236
231,237
231,238
231,239
233,240
234,241
235,246
236,243
237,249
238,244
238,245
239,242
239,245
240,247
241,247
242,248
243,250
244,249

<end>
